NAME : tsp_49_sol.txt
COMMENT : OR-Tools Guided Local Search
TYPE : TOUR
DIMENSION : 50
COST : 5662
STATUS : ROUTING_SUCCESS
GAP : 0.00% (Reference Solution)
TOUR_SECTION
1
44
28
4
18
23
36
33
10
50
6
3
25
38
22
43
21
46
31
12
29
14
24
49
5
20
30
45
11
26
7
48
19
34
17
35
41
13
8
9
16
2
37
15
39
42
40
32
47
27
-1
